(declare-fun temp914_1 () (_ BitVec 64))
(declare-fun var525626 () (_ BitVec 64))
(declare-fun temp914_2 () (_ BitVec 64))
(declare-fun var787770 () (_ BitVec 64))
(declare-fun temp914_3 () (_ BitVec 64))
(declare-fun var1836346 () (_ BitVec 64))
(declare-fun temp914_4 () (_ BitVec 64))
(declare-fun var2098490 () (_ BitVec 64))
(assert (= temp914_1 #x0000000000000000))
(assert (= var525626 temp914_1))
(assert (= temp914_2 #x0000000000000000))
(assert (= var787770 temp914_2))
(assert (= temp914_3 #x0000000000000000))
(assert (= var1836346 temp914_3))
(assert (= temp914_4 #x0000000000000000))
(assert (= var2098490 temp914_4))
(model-add temp914_1 () (_ BitVec 64) #x0000000000000000)
(model-add var525626 () (_ BitVec 64) #x0000000000000000)
(model-add temp914_2 () (_ BitVec 64) #x0000000000000000)
(model-add var787770 () (_ BitVec 64) #x0000000000000000)
(model-add temp914_3 () (_ BitVec 64) #x0000000000000000)
(model-add var1836346 () (_ BitVec 64) #x0000000000000000)
(model-add temp914_4 () (_ BitVec 64) #x0000000000000000)
(model-add var2098490 () (_ BitVec 64) #x0000000000000000)





